webassembly/ejemplos_dzn/5/folder5_json_62.dzn
TERM = { '.', 's(2)', 'in_1', 'in_2', 'in_3', 'in_4', 's(1)', 's(0)', 'in_0'};
null = '.';
s = 5;
n = 10;
ndeps = 1;
max_registers_sz = 3;
NR = 0;
registers = [| |];
dependencies = [|'i32.store8_3', 'i32.store16_4'|];
GET_ENUM = { GET1, GET2, GET3};
SET_ENUM = { SET1, SET2, SET3};
TEE_ENUM = { TEE1, TEE2, TEE3};
N = 5;
OP = { 'i32.const_0', 'i32.sub_0', 'i32.add_0', 'i32.store8_3', 'i32.store16_4' };
in_ops = [0, 2, 2, 2, 2 ];
out_ops = [1, 1, 1, 0, 0 ];
in1 = ['.', 'in_0', 's(0)', 's(2)', 'in_3' ];
in2 = ['.', 'in_1', 'in_2', 's(1)', 'in_4' ];
in3 = ['.', '.', '.', '.', '.' ];
out1 = ['s(2)', 's(0)', 's(1)', '.', '.' ];
out2 = ['.', '.', '.', '.', '.' ];
out3 = ['.', '.', '.', '.', '.' ];
comm = [false, false, true, false, false ];
gas = [1, 1, 1, 1, 1 ];
sz = [1, 1, 1, 1, 1 ];
stor = [false, false, false, true, true ];
lb = [ 1, 1, 1, 1, 1 ];
ub = [ 5, 5, 5, 5, 5 ];
startstack = [ 'in_0', 'in_1', 'in_2', 'in_3', 'in_4', null, null, null, null, null ];
endstack = [ null, null, null, null, null, null, null, null, null, null ];
