webassembly/ejemplos_results/5/folder5_json_62.txt
value = 5;
fgas = [1, 1, 1, 1, 1];
fsize = [1, 1, 1, 1, 1];
states = 
[|   in_0,   in_1, in_2, in_3, in_4, '.', '.', '.', '.',  '.'
 | 's(0)',   in_2, in_3, in_4,  '.', '.', '.', '.', '.',  '.'
 | 's(1)',   in_3, in_4,  '.',  '.', '.', '.', '.', '.', in_0
 | 's(2)', 's(1)', in_3, in_4,  '.', '.', '.', '.', '.',  '.'
 |   in_3,   in_4,  '.',  '.',  '.', '.', '.', '.', '.',  '.'
 |    '.',    '.',  '.',  '.',  '.', '.', '.', '.', '.',  '.'
 |];
register_states = 
[| '.', '.', '.'
 | '.', '.', '.'
 | '.', '.', '.'
 | '.', '.', '.'
 | '.', '.', '.'
 | '.', '.', '.'
 |];
program = [O('i32.sub_0'), O('i32.add_0'), O('i32.const_0'), O('i32.store8_3'), O('i32.store16_4')];
% time elapsed: 0.07 s
----------
==========
% time elapsed: 0.07 s
% [value > 4]
